PatchBench/qemu/CWE-189-Numeric-Errors/CVE_2016_2538_fe3c546c5ff2a6210f9a4d8561cc64051ca8603e/cve2/Resultusb_net_handle_dataoutEQ.smt2
; benchmark generated from python API
(set-info :status unknown)
(declare-fun R () (_ BitVec 32))
(declare-fun rsi () (_ BitVec 64))
(declare-fun rdx () (_ BitVec 64))
(declare-fun rdi () (_ BitVec 64))
(assert
 (let (($x1370 (= (_ bv0 32) R)))
 (let ((?x8 ((_ extract 31 0) rsi)))
 (let ((?x10 ((_ extract 31 0) rdx)))
 (let ((?x52 (bvadd ?x10 ?x8)))
 (let ((?x6 ((_ extract 31 0) rdi)))
 (let (($x827 (bvult ?x6 ?x52)))
 (let (($x1376 (and $x827 $x1370)))
 (let (($x1361 (= R ?x8)))
 (let (($x1332 (bvuge ?x6 ?x52)))
 (let (($x1375 (and $x1332 $x1361)))
 (let (($x1377 (or $x1375 $x1376)))
 (let (($x41 (bvuge ?x8 ?x6)))
 (let (($x1373 (and $x41 $x1370)))
 (let (($x16 (bvult ?x8 ?x6)))
 (let (($x553 (bvuge ?x10 ?x6)))
 (let (($x1372 (and $x553 $x16 $x1370)))
 (let (($x72 (bvult ?x10 ?x6)))
 (let (($x1371 (and $x827 $x72 $x16 $x1370)))
 (let (($x1356 (and $x1332 $x72 $x16 $x1361)))
 (let (($x1374 (or $x1356 $x1371 $x1372 $x1373)))
 (and $x1374 $x1377))))))))))))))))))))))
(check-sat)
